Maximize
  8 x_circular_tables + 12 x_rectangular_tables
Subject To
  c1: 4 x_circular_tables + 4 x_rectangular_tables >= 300
  c2: 5 x_circular_tables + 4 x_rectangular_tables >= 500
  c3: 15 x_circular_tables + 20 x_rectangular_tables <= 1900
End